param set_len = 16;
param target := 104859126;
param values := [1] 7634803 [2] 31759958 [3] 7453553 [4] 10362151 [5] 13663286 [6] 6555808 [7] 26641814 [8] 61927 [9] 29374762 [10] 16371684 [11] 26264126 [12] 27329447 [13] 16924428 [14] 4532167 [15] 7011563 [16] 13168828 ;
